NAME 
ROWS
 N  OBJ
 L  R0      
 L  R1      
 L  R2      
 E  R3      
 E  R4      
 E  R5      
 E  R6      
 E  R7      
 E  R8      
 E  R9      
 E  R10     
 E  R11     
 E  R12     
 E  R13     
 E  R14     
 E  R15     
 E  R16     
 E  R17     
 E  R18     
 E  R19     
 E  R20     
 E  R21     
 E  R22     
COLUMNS
    MARKER    'MARKER'                 'INTORG'
    I0(12)    OBJ       -37
    I0(12)    R0        -71
    I0(12)    R1        -91
    I0(12)    R2        175
    I0(12)    R3        8
    I0(12)    R4        19
    I0(12)    R6        15
    I0(12)    R7        10
    I0(12)    R8        9
    I0(12)    R10       16
    I0(12)    R12       13
    I0(12)    R13       2
    I0(12)    R22       1
    I1(13)    OBJ       -150
    I1(13)    R0        -86
    I1(13)    R1        62
    I1(13)    R2        135
    I1(13)    R4        8
    I1(13)    R5        7
    I1(13)    R6        9
    I1(13)    R7        5
    I1(13)    R8        12
    I1(13)    R10       8
    I1(13)    R11       3
    I1(13)    R12       11
    I1(13)    R13       13
    I1(13)    R22       1
    I2(14)    OBJ       116
    I2(14)    R0        -105
    I2(14)    R1        -126
    I2(14)    R2        149
    I2(14)    R4        8
    I2(14)    R5        11
    I2(14)    R6        12
    I2(14)    R7        17
    I2(14)    R9        15
    I2(14)    R10       15
    I2(14)    R11       16
    I2(14)    R12       11
    I2(14)    R13       -1
    I2(14)    R14       3
    I2(14)    R22       1
    I3(14)    OBJ       -71
    I3(14)    R0        -64
    I3(14)    R1        -136
    I3(14)    R2        -180
    I3(14)    R3        13
    I3(14)    R4        12
    I3(14)    R5        11
    I3(14)    R6        5
    I3(14)    R8        -1
    I3(14)    R9        -1
    I3(14)    R10       18
    I3(14)    R11       7
    I3(14)    R12       7
    I3(14)    R13       9
    I3(14)    R22       1
    I4(14)    OBJ       -98
    I4(14)    R0        -19
    I4(14)    R1        152
    I4(14)    R2        117
    I4(14)    R3        1
    I4(14)    R4        -1
    I4(14)    R5        13
    I4(14)    R6        15
    I4(14)    R7        16
    I4(14)    R8        14
    I4(14)    R10       18
    I4(14)    R11       16
    I4(14)    R13       6
    I4(14)    R14       1
    I4(14)    R22       1
    I5(14)    OBJ       -167
    I5(14)    R0        152
    I5(14)    R1        122
    I5(14)    R2        -110
    I5(14)    R3        4
    I5(14)    R4        5
    I5(14)    R5        8
    I5(14)    R6        18
    I5(14)    R8        -1
    I5(14)    R10       1
    I5(14)    R11       14
    I5(14)    R12       19
    I5(14)    R13       12
    I5(14)    R14       8
    I5(14)    R22       1
    I6(13)    OBJ       98
    I6(13)    R0        -111
    I6(13)    R1        108
    I6(13)    R2        -78
    I6(13)    R4        10
    I6(13)    R5        7
    I6(13)    R6        14
    I6(13)    R8        17
    I6(13)    R9        8
    I6(13)    R10       14
    I6(13)    R11       6
    I6(13)    R12       7
    I6(13)    R13       9
    I6(13)    R22       1
    I7(14)    OBJ       98
    I7(14)    R0        9
    I7(14)    R1        -51
    I7(14)    R2        -102
    I7(14)    R3        9
    I7(14)    R5        7
    I7(14)    R6        16
    I7(14)    R8        8
    I7(14)    R9        7
    I7(14)    R10       14
    I7(14)    R11       15
    I7(14)    R12       14
    I7(14)    R13       7
    I7(14)    R14       10
    I7(14)    R22       1
    I8(13)    OBJ       -19
    I8(13)    R0        185
    I8(13)    R1        183
    I8(13)    R2        17
    I8(13)    R3        8
    I8(13)    R4        17
    I8(13)    R5        5
    I8(13)    R6        5
    I8(13)    R7        6
    I8(13)    R10       13
    I8(13)    R11       10
    I8(13)    R13       9
    I8(13)    R14       14
    I8(13)    R22       1
    I9(14)    OBJ       173
    I9(14)    R0        47
    I9(14)    R1        -176
    I9(14)    R2        173
    I9(14)    R3        5
    I9(14)    R4        10
    I9(14)    R6        7
    I9(14)    R7        15
    I9(14)    R9        10
    I9(14)    R10       16
    I9(14)    R11       8
    I9(14)    R12       11
    I9(14)    R13       -1
    I9(14)    R14       5
    I9(14)    R22       1
    I10(11)   OBJ       -195
    I10(11)   R0        -140
    I10(11)   R1        158
    I10(11)   R2        29
    I10(11)   R3        10
    I10(11)   R4        13
    I10(11)   R6        19
    I10(11)   R7        7
    I10(11)   R11       8
    I10(11)   R12       15
    I10(11)   R13       -1
    I10(11)   R22       1
    I11(14)   OBJ       -10
    I11(14)   R0        95
    I11(14)   R1        -150
    I11(14)   R2        -194
    I11(14)   R3        13
    I11(14)   R4        19
    I11(14)   R5        14
    I11(14)   R6        5
    I11(14)   R7        16
    I11(14)   R8        14
    I11(14)   R10       2
    I11(14)   R11       16
    I11(14)   R13       18
    I11(14)   R14       19
    I11(14)   R22       1
    MARKER    'MARKER'                 'INTEND'
    C12(13)   OBJ       -3
    C12(13)   R0        6
    C12(13)   R1        3
    C12(13)   R2        7
    C12(13)   R5        4
    C12(13)   R6        10
    C12(13)   R8        19
    C12(13)   R9        7
    C12(13)   R12       11
    C12(13)   R14       3
    C12(13)   R15       16
    C12(13)   R18       10
    C12(13)   R19       14
    C12(13)   R21       15
    C13(20)   OBJ       3
    C13(20)   R0        -1
    C13(20)   R1        9
    C13(20)   R2        7
    C13(20)   R3        -1
    C13(20)   R4        17
    C13(20)   R5        9
    C13(20)   R6        11
    C13(20)   R8        13
    C13(20)   R9        17
    C13(20)   R10       12
    C13(20)   R11       1
    C13(20)   R12       2
    C13(20)   R13       7
    C13(20)   R14       17
    C13(20)   R15       -1
    C13(20)   R16       8
    C13(20)   R17       10
    C13(20)   R19       14
    C13(20)   R20       6
    C13(20)   R21       11
    C14(16)   OBJ       -3
    C14(16)   R0        -7
    C14(16)   R2        -3
    C14(16)   R3        13
    C14(16)   R4        7
    C14(16)   R5        15
    C14(16)   R6        15
    C14(16)   R7        7
    C14(16)   R8        10
    C14(16)   R10       5
    C14(16)   R12       16
    C14(16)   R13       19
    C14(16)   R14       3
    C14(16)   R15       12
    C14(16)   R16       6
    C14(16)   R17       3
    C14(16)   R19       11
    C15(16)   OBJ       -5
    C15(16)   R0        9
    C15(16)   R1        6
    C15(16)   R2        5
    C15(16)   R3        15
    C15(16)   R5        19
    C15(16)   R6        13
    C15(16)   R7        12
    C15(16)   R9        13
    C15(16)   R10       12
    C15(16)   R13       12
    C15(16)   R14       17
    C15(16)   R15       12
    C15(16)   R16       19
    C15(16)   R17       14
    C15(16)   R18       12
    C15(16)   R19       -1
    C16(20)   OBJ       7
    C16(20)   R0        -4
    C16(20)   R1        6
    C16(20)   R2        6
    C16(20)   R3        2
    C16(20)   R4        11
    C16(20)   R5        8
    C16(20)   R6        13
    C16(20)   R7        1
    C16(20)   R8        3
    C16(20)   R9        9
    C16(20)   R10       13
    C16(20)   R11       16
    C16(20)   R12       15
    C16(20)   R15       9
    C16(20)   R16       6
    C16(20)   R17       13
    C16(20)   R18       12
    C16(20)   R19       -1
    C16(20)   R20       15
    C16(20)   R21       14
    C17(18)   OBJ       -2
    C17(18)   R0        -10
    C17(18)   R2        -1
    C17(18)   R4        19
    C17(18)   R5        4
    C17(18)   R6        17
    C17(18)   R7        12
    C17(18)   R8        12
    C17(18)   R9        15
    C17(18)   R10       5
    C17(18)   R11       17
    C17(18)   R12       19
    C17(18)   R13       4
    C17(18)   R14       8
    C17(18)   R15       5
    C17(18)   R16       6
    C17(18)   R17       13
    C17(18)   R18       -1
    C17(18)   R19       6
    C18(19)   OBJ       4
    C18(19)   R0        -6
    C18(19)   R1        5
    C18(19)   R2        9
    C18(19)   R3        13
    C18(19)   R4        14
    C18(19)   R5        11
    C18(19)   R6        -1
    C18(19)   R7        18
    C18(19)   R8        11
    C18(19)   R9        15
    C18(19)   R10       12
    C18(19)   R11       9
    C18(19)   R12       12
    C18(19)   R13       4
    C18(19)   R14       5
    C18(19)   R16       13
    C18(19)   R18       2
    C18(19)   R19       18
    C18(19)   R20       13
    C19(16)   OBJ       -10
    C19(16)   R0        -3
    C19(16)   R1        -2
    C19(16)   R2        3
    C19(16)   R3        9
    C19(16)   R4        4
    C19(16)   R5        17
    C19(16)   R7        5
    C19(16)   R9        13
    C19(16)   R12       -1
    C19(16)   R13       2
    C19(16)   R16       12
    C19(16)   R17       13
    C19(16)   R18       8
    C19(16)   R19       18
    C19(16)   R20       18
    C19(16)   R21       12
    C20(1)    R3        1
    C21(1)    R4        1
    C22(1)    R5        1
    C23(1)    R6        1
    C24(1)    R7        1
    C25(1)    R8        1
    C26(1)    R9        1
    C27(1)    R10       1
    C28(1)    R11       1
    C29(1)    R12       1
    C30(1)    R13       1
    C31(1)    R14       1
    C32(1)    R15       1
    C33(1)    R16       1
    C34(1)    R17       1
    C35(1)    R18       1
    C36(1)    R19       1
    C37(1)    R20       1
    C38(1)    R21       1
    C39(1)    R22       1
RHS
    RHS1      R0        -1.0113253012048185e+02
    RHS1      R1        4.8855421686746990e+02
    RHS1      R2        1.7944578313253041e+02
    RHS1      R3        97
    RHS1      R4        83
    RHS1      R5        75
    RHS1      R6        90
    RHS1      R7        97
    RHS1      R8        98
    RHS1      R9        70
    RHS1      R10       87
    RHS1      R11       93
    RHS1      R12       59
    RHS1      R13       54
    RHS1      R14       83
    RHS1      R15       79
    RHS1      R16       78
    RHS1      R17       98
    RHS1      R18       83
    RHS1      R19       50
    RHS1      R20       54
    RHS1      R21       63
    RHS1      R22       4
BOUNDS
 UP BND1      I0(12)    1
 UP BND1      I1(13)    1
 UP BND1      I2(14)    1
 UP BND1      I3(14)    1
 UP BND1      I4(14)    1
 UP BND1      I5(14)    1
 UP BND1      I6(13)    1
 UP BND1      I7(14)    1
 UP BND1      I8(13)    1
 UP BND1      I9(14)    1
 UP BND1      I10(11)   1
 UP BND1      I11(14)   1
ENDATA
